data;
param Title := DaucusCarota;
param start := 42_0_F;
set V :=
1_0_F
64_0_F
29_0_F
3_0_R
4_0_R
42_0_F
20_0_R
21_0_F
61_0_R
59_0_F
87_0_F
78_0_F
79_0_F
117_0_R
136_0_F
121_0_F
25_0_F
27_0_F
34_0_F
32_0_F
0_0_R
2_0_R
138_0_R
118_0_R
71_0_F
70_0_R
68_0_F
63_0_R
40_0_F
41_0_R
101_0_F
112_0_R
99_0_F
97_0_R
80_0_R
82_0_F
113_0_R
104_0_F
102_0_F
107_0_F
114_0_R
111_0_F
110_0_F
133_0_R
7_0_R
6_0_F
38_0_R
37_0_F
56_0_R
51_0_F
50_0_F
56_1_F
37_1_R
38_1_F
6_1_R
7_1_F
133_1_F
110_1_R
111_1_R
114_1_F
107_1_R
102_1_R
104_1_R
113_1_F
82_1_R
80_1_F
97_1_F
99_1_R
112_1_F
101_1_R
41_1_F
40_1_R
63_1_F
68_1_R
70_1_F
71_1_R
118_1_F
138_1_F
2_1_F
;
set O :=
1_0_F	64_0_F
64_0_F	29_0_F
29_0_F	3_0_R
3_0_R	4_0_R
4_0_R	42_0_F
42_0_F	20_0_R
20_0_R	21_0_F
21_0_F	61_0_R
61_0_R	59_0_F
59_0_F	87_0_F
87_0_F	78_0_F
78_0_F	79_0_F
79_0_F	117_0_R
117_0_R	136_0_F
136_0_F	121_0_F
121_0_F	25_0_F
25_0_F	27_0_F
27_0_F	34_0_F
34_0_F	32_0_F
32_0_F	0_0_R
0_0_R	2_0_R
2_0_R	138_0_R
138_0_R	118_0_R
118_0_R	71_0_F
71_0_F	70_0_R
70_0_R	68_0_F
68_0_F	63_0_R
63_0_R	40_0_F
40_0_F	41_0_R
41_0_R	101_0_F
101_0_F	112_0_R
112_0_R	99_0_F
99_0_F	97_0_R
97_0_R	80_0_R
80_0_R	82_0_F
82_0_F	113_0_R
113_0_R	104_0_F
104_0_F	102_0_F
102_0_F	107_0_F
107_0_F	114_0_R
114_0_R	111_0_F
111_0_F	110_0_F
110_0_F	133_0_R
133_0_R	7_0_R
7_0_R	6_0_F
6_0_F	38_0_R
38_0_R	37_0_F
37_0_F	56_0_R
56_0_R	51_0_F
51_0_F	50_0_F
50_0_F	56_1_F
56_1_F	37_1_R
37_1_R	38_1_F
38_1_F	6_1_R
6_1_R	7_1_F
7_1_F	133_1_F
133_1_F	110_1_R
110_1_R	111_1_R
111_1_R	114_1_F
114_1_F	107_1_R
107_1_R	102_1_R
102_1_R	104_1_R
104_1_R	113_1_F
113_1_F	82_1_R
82_1_R	80_1_F
80_1_F	97_1_F
97_1_F	99_1_R
99_1_R	112_1_F
112_1_F	101_1_R
101_1_R	41_1_F
41_1_F	40_1_R
40_1_R	63_1_F
63_1_F	68_1_R
68_1_R	70_1_F
70_1_F	71_1_R
71_1_R	118_1_F
118_1_F	138_1_F
138_1_F	2_1_F
2_1_F	1_0_F
;
set L :=
110_0_F	133_0_R
133_0_R	56_0_R
133_0_R	37_0_F
133_0_R	6_0_F
133_0_R	38_0_R
133_0_R	7_0_R
133_0_R	51_0_F
79_0_F	136_0_F
79_0_F	117_0_R
79_0_F	121_0_F
114_1_F	112_1_F
114_1_F	97_1_F
114_1_F	99_1_R
82_0_F	110_0_F
63_0_R	99_0_F
63_0_R	97_0_R
63_0_R	80_0_R
7_0_R	51_0_F
51_0_F	50_0_F
0_0_R	118_0_R
0_0_R	68_0_F
0_0_R	71_0_F
0_0_R	138_0_R
110_1_R	104_1_R
110_1_R	82_1_R
110_1_R	113_1_F
56_0_R	51_0_F
7_1_F	133_1_F
111_0_F	133_0_R
27_0_F	34_0_F
27_0_F	32_0_F
4_0_R	42_0_F
41_1_F	68_1_R
41_1_F	71_1_R
71_1_R	1_0_F
68_1_R	1_0_F
56_1_F	133_1_F
42_0_F	20_0_R
112_1_F	68_1_R
117_0_R	121_0_F
20_0_R	21_0_F
113_0_R	110_0_F
107_1_R	41_1_F
114_0_R	133_0_R
104_0_F	110_0_F
104_0_F	133_0_R
118_1_F	1_0_F
1_0_F	3_0_R
1_0_F	29_0_F
133_1_F	111_1_R
133_1_F	110_1_R
133_1_F	104_1_R
133_1_F	107_1_R
133_1_F	114_1_F
99_0_F	114_0_R
50_0_F	38_1_F
50_0_F	133_1_F
50_0_F	7_1_F
50_0_F	56_1_F
50_0_F	37_1_R
50_0_F	6_1_R
64_0_F	4_0_R
121_0_F	25_0_F
121_0_F	27_0_F
6_1_R	133_1_F
118_0_R	40_0_F
41_0_R	107_0_F
3_0_R	4_0_R
3_0_R	42_0_F
112_0_R	114_0_R
40_1_R	71_1_R
40_1_R	138_1_F
40_1_R	118_1_F
87_0_F	78_0_F
87_0_F	79_0_F
29_0_F	4_0_R
97_1_F	63_1_F
38_0_R	51_0_F
37_0_F	51_0_F
111_1_R	80_1_F
97_0_R	114_0_R
113_1_F	40_1_R
107_0_F	133_0_R
68_0_F	41_0_R
68_0_F	112_0_R
21_0_F	87_0_F
25_0_F	34_0_F
32_0_F	0_0_R
32_0_F	138_0_R
71_0_F	41_0_R
71_0_F	40_0_F
40_0_F	104_0_F
40_0_F	82_0_F
40_0_F	113_0_R
37_1_R	133_1_F
38_1_F	133_1_F
80_1_F	63_1_F
104_1_R	40_1_R
63_1_F	138_1_F
99_1_R	63_1_F
138_0_R	40_0_F
138_0_R	63_0_R
78_0_F	79_0_F
80_0_R	111_0_F
136_0_F	25_0_F
136_0_F	121_0_F
6_0_F	51_0_F
82_1_R	40_1_R
138_1_F	64_0_F
138_1_F	1_0_F
34_0_F	32_0_F
;
param l :=
1_0_F	64_0_F	-100.0
64_0_F	29_0_F	-100.0
29_0_F	3_0_R	-100.0
3_0_R	4_0_R	-100.0
4_0_R	42_0_F	-100.0
42_0_F	20_0_R	-100.0
20_0_R	21_0_F	-100.0
21_0_F	61_0_R	-100.0
61_0_R	59_0_F	-100.0
59_0_F	87_0_F	-100.0
87_0_F	78_0_F	-100.0
78_0_F	79_0_F	-100.0
79_0_F	117_0_R	-100.0
117_0_R	136_0_F	-100.0
136_0_F	121_0_F	-100.0
121_0_F	25_0_F	-100.0
25_0_F	27_0_F	-100.0
27_0_F	34_0_F	-100.0
34_0_F	32_0_F	-100.0
32_0_F	0_0_R	-100.0
0_0_R	2_0_R	-100.0
2_0_R	138_0_R	-100.0
138_0_R	118_0_R	-100.0
118_0_R	71_0_F	-100.0
71_0_F	70_0_R	-100.0
70_0_R	68_0_F	-100.0
68_0_F	63_0_R	-100.0
63_0_R	40_0_F	-100.0
40_0_F	41_0_R	-100.0
41_0_R	101_0_F	-100.0
101_0_F	112_0_R	-100.0
112_0_R	99_0_F	-100.0
99_0_F	97_0_R	-100.0
97_0_R	80_0_R	-100.0
80_0_R	82_0_F	-100.0
82_0_F	113_0_R	-100.0
113_0_R	104_0_F	-100.0
104_0_F	102_0_F	-100.0
102_0_F	107_0_F	-100.0
107_0_F	114_0_R	-100.0
114_0_R	111_0_F	-100.0
111_0_F	110_0_F	-100.0
110_0_F	133_0_R	-100.0
133_0_R	7_0_R	-100.0
7_0_R	6_0_F	-100.0
6_0_F	38_0_R	-100.0
38_0_R	37_0_F	-100.0
37_0_F	56_0_R	-100.0
56_0_R	51_0_F	-100.0
51_0_F	50_0_F	-100.0
50_0_F	56_1_F	-100.0
56_1_F	37_1_R	-100.0
37_1_R	38_1_F	-100.0
38_1_F	6_1_R	-100.0
6_1_R	7_1_F	-100.0
7_1_F	133_1_F	-100.0
133_1_F	110_1_R	-100.0
110_1_R	111_1_R	-100.0
111_1_R	114_1_F	-100.0
114_1_F	107_1_R	-100.0
107_1_R	102_1_R	-100.0
102_1_R	104_1_R	-100.0
104_1_R	113_1_F	-100.0
113_1_F	82_1_R	-100.0
82_1_R	80_1_F	-100.0
80_1_F	97_1_F	-100.0
97_1_F	99_1_R	-100.0
99_1_R	112_1_F	-100.0
112_1_F	101_1_R	-100.0
101_1_R	41_1_F	-100.0
41_1_F	40_1_R	-100.0
40_1_R	63_1_F	-100.0
63_1_F	68_1_R	-100.0
68_1_R	70_1_F	-100.0
70_1_F	71_1_R	-100.0
71_1_R	118_1_F	-100.0
118_1_F	138_1_F	-100.0
138_1_F	2_1_F	-100.0
2_1_F	1_0_F	-100.0
;
param w :=
1_0_F	3332.0
64_0_F	1495.0
29_0_F	640.0
3_0_R	3083.0
4_0_R	2834.0
42_0_F	13172.0
20_0_R	8366.0
21_0_F	7738.0
61_0_R	157.0
59_0_F	137.0
87_0_F	5016.0
78_0_F	3813.0
79_0_F	4818.0
117_0_R	623.0
136_0_F	3982.0
121_0_F	3473.0
25_0_F	2477.0
27_0_F	2397.0
34_0_F	4184.0
32_0_F	10915.0
0_0_R	3792.0
2_0_R	168.0
138_0_R	2368.0
118_0_R	422.0
71_0_F	1267.0
70_0_R	130.0
68_0_F	1220.0
63_0_R	1116.0
40_0_F	2506.0
41_0_R	694.0
101_0_F	244.0
112_0_R	569.0
99_0_F	659.0
97_0_R	491.0
80_0_R	445.0
82_0_F	733.0
113_0_R	785.0
104_0_F	1041.0
102_0_F	311.0
107_0_F	373.0
114_0_R	1794.0
111_0_F	410.0
110_0_F	1980.0
133_0_R	6433.0
7_0_R	334.0
6_0_F	1075.0
38_0_R	341.0
37_0_F	1119.0
56_0_R	720.0
51_0_F	6380.0
50_0_F	11491.0
56_1_F	720.0
37_1_R	1119.0
38_1_F	341.0
6_1_R	1075.0
7_1_F	334.0
133_1_F	6433.0
110_1_R	1980.0
111_1_R	410.0
114_1_F	1794.0
107_1_R	373.0
102_1_R	311.0
104_1_R	1041.0
113_1_F	785.0
82_1_R	733.0
80_1_F	445.0
97_1_F	491.0
99_1_R	659.0
112_1_F	569.0
101_1_R	244.0
41_1_F	694.0
40_1_R	2506.0
63_1_F	1116.0
68_1_R	1220.0
70_1_F	130.0
71_1_R	1267.0
118_1_F	422.0
138_1_F	2368.0
2_1_F	168.0
;
param b_inf :=
110_0_F	133_0_R	0.0
133_0_R	56_0_R	2215.0
133_0_R	37_0_F	1230.0
133_0_R	6_0_F	5.0
133_0_R	38_0_R	974.0
133_0_R	7_0_R	0.0
133_0_R	51_0_F	2853.0
79_0_F	136_0_F	250.0
79_0_F	117_0_R	0.0
79_0_F	121_0_F	4200.0
114_1_F	112_1_F	3875.0
114_1_F	97_1_F	2923.0
114_1_F	99_1_R	3255.0
82_0_F	110_0_F	3922.0
63_0_R	99_0_F	3403.0
63_0_R	97_0_R	4028.0
63_0_R	80_0_R	4355.0
7_0_R	51_0_F	2635.0
51_0_F	50_0_F	0.0
0_0_R	118_0_R	2150.0
0_0_R	68_0_F	3643.0
0_0_R	71_0_F	2456.0
0_0_R	138_0_R	0.0
110_1_R	104_1_R	2294.0
110_1_R	82_1_R	3922.0
110_1_R	113_1_F	3197.0
56_0_R	51_0_F	0.0
7_1_F	133_1_F	0.0
111_0_F	133_0_R	1707.0
27_0_F	34_0_F	0.0
27_0_F	32_0_F	3875.0
4_0_R	42_0_F	0.0
41_1_F	68_1_R	3239.0
41_1_F	71_1_R	4367.0
71_1_R	1_0_F	2413.0
68_1_R	1_0_F	3610.0
56_1_F	133_1_F	2244.0
42_0_F	20_0_R	0.0
112_1_F	68_1_R	3964.0
117_0_R	121_0_F	3677.0
20_0_R	21_0_F	0.0
113_0_R	110_0_F	3197.0
107_1_R	41_1_F	4202.0
114_0_R	133_0_R	1957.0
104_0_F	110_0_F	2256.0
104_0_F	133_0_R	4160.0
118_1_F	1_0_F	2100.0
1_0_F	3_0_R	1700.0
1_0_F	29_0_F	1196.0
133_1_F	111_1_R	1712.0
133_1_F	110_1_R	0.0
133_1_F	104_1_R	4163.0
133_1_F	107_1_R	3717.0
133_1_F	114_1_F	1895.0
99_0_F	114_0_R	3255.0
50_0_F	38_1_F	1403.0
50_0_F	133_1_F	2879.0
50_0_F	7_1_F	2769.0
50_0_F	56_1_F	0.0
50_0_F	37_1_R	380.0
50_0_F	6_1_R	1689.0
64_0_F	4_0_R	3257.0
121_0_F	25_0_F	0.0
121_0_F	27_0_F	2137.0
6_1_R	133_1_F	7.0
118_0_R	40_0_F	3110.0
41_0_R	107_0_F	4154.0
3_0_R	4_0_R	0.0
3_0_R	42_0_F	2489.0
112_0_R	114_0_R	3875.0
40_1_R	71_1_R	1934.0
40_1_R	138_1_F	3428.0
40_1_R	118_1_F	3110.0
87_0_F	78_0_F	0.0
87_0_F	79_0_F	3458.0
29_0_F	4_0_R	2779.0
97_1_F	63_1_F	4028.0
38_0_R	51_0_F	1464.0
37_0_F	51_0_F	404.0
111_1_R	80_1_F	4278.0
97_0_R	114_0_R	2923.0
113_1_F	40_1_R	2898.0
107_0_F	133_0_R	3668.0
68_0_F	41_0_R	3239.0
68_0_F	112_0_R	4000.0
21_0_F	87_0_F	0.0
25_0_F	34_0_F	2013.0
32_0_F	0_0_R	0.0
32_0_F	138_0_R	3582.0
71_0_F	41_0_R	4367.0
71_0_F	40_0_F	1937.0
40_0_F	104_0_F	3591.0
40_0_F	82_0_F	2315.0
40_0_F	113_0_R	2898.0
37_1_R	133_1_F	1221.0
38_1_F	133_1_F	1002.0
80_1_F	63_1_F	4355.0
104_1_R	40_1_R	3615.0
63_1_F	138_1_F	2442.0
99_1_R	63_1_F	3459.0
138_0_R	40_0_F	3444.0
138_0_R	63_0_R	2442.0
78_0_F	79_0_F	0.0
80_0_R	111_0_F	4278.0
136_0_F	25_0_F	3119.0
136_0_F	121_0_F	0.0
6_0_F	51_0_F	1628.0
82_1_R	40_1_R	2315.0
138_1_F	64_0_F	3040.0
138_1_F	1_0_F	0.0
34_0_F	32_0_F	0.0
;
param b_sup :=
110_0_F	133_0_R	98.0
133_0_R	56_0_R	2511.0
133_0_R	37_0_F	1513.0
133_0_R	6_0_F	269.0
133_0_R	38_0_R	1174.0
133_0_R	7_0_R	0.0
133_0_R	51_0_F	3138.0
79_0_F	136_0_F	571.0
79_0_F	117_0_R	0.0
79_0_F	121_0_F	4360.0
114_1_F	112_1_F	4014.0
114_1_F	97_1_F	3010.0
114_1_F	99_1_R	3531.0
82_0_F	110_0_F	4120.0
63_0_R	99_0_F	3624.0
63_0_R	97_0_R	4160.0
63_0_R	80_0_R	4449.0
7_0_R	51_0_F	2830.0
51_0_F	50_0_F	98.0
0_0_R	118_0_R	2345.0
0_0_R	68_0_F	3849.0
0_0_R	71_0_F	2670.0
0_0_R	138_0_R	125.0
110_1_R	104_1_R	2508.0
110_1_R	82_1_R	4120.0
110_1_R	113_1_F	3458.0
56_0_R	51_0_F	33.0
7_1_F	133_1_F	0.0
111_0_F	133_0_R	1852.0
27_0_F	34_0_F	32.0
27_0_F	32_0_F	4133.0
4_0_R	42_0_F	44.0
41_1_F	68_1_R	3462.0
41_1_F	71_1_R	4499.0
71_1_R	1_0_F	2708.0
68_1_R	1_0_F	3879.0
56_1_F	133_1_F	2507.0
42_0_F	20_0_R	38.0
112_1_F	68_1_R	4063.0
117_0_R	121_0_F	3897.0
20_0_R	21_0_F	31.0
113_0_R	110_0_F	3458.0
107_1_R	41_1_F	4314.0
114_0_R	133_0_R	2226.0
104_0_F	110_0_F	2525.0
104_0_F	133_0_R	4348.0
118_1_F	1_0_F	2331.0
1_0_F	3_0_R	1962.0
1_0_F	29_0_F	1419.0
133_1_F	111_1_R	1896.0
133_1_F	110_1_R	98.0
133_1_F	104_1_R	4327.0
133_1_F	107_1_R	3881.0
133_1_F	114_1_F	2240.0
99_0_F	114_0_R	3531.0
50_0_F	38_1_F	1643.0
50_0_F	133_1_F	3127.0
50_0_F	7_1_F	2840.0
50_0_F	56_1_F	5.0
50_0_F	37_1_R	654.0
50_0_F	6_1_R	1904.0
64_0_F	4_0_R	3568.0
121_0_F	25_0_F	2.0
121_0_F	27_0_F	2395.0
6_1_R	133_1_F	271.0
118_0_R	40_0_F	3372.0
41_0_R	107_0_F	4401.0
3_0_R	4_0_R	5.0
3_0_R	42_0_F	2796.0
112_0_R	114_0_R	4014.0
40_1_R	71_1_R	2213.0
40_1_R	138_1_F	3698.0
40_1_R	118_1_F	3372.0
87_0_F	78_0_F	80.0
87_0_F	79_0_F	3739.0
29_0_F	4_0_R	2954.0
97_1_F	63_1_F	4160.0
38_0_R	51_0_F	1594.0
37_0_F	51_0_F	648.0
111_1_R	80_1_F	4414.0
97_0_R	114_0_R	3010.0
113_1_F	40_1_R	3183.0
107_0_F	133_0_R	3854.0
68_0_F	41_0_R	3462.0
68_0_F	112_0_R	4142.0
21_0_F	87_0_F	235.0
25_0_F	34_0_F	2360.0
32_0_F	0_0_R	68.0
32_0_F	138_0_R	3780.0
71_0_F	41_0_R	4499.0
71_0_F	40_0_F	2197.0
40_0_F	104_0_F	3827.0
40_0_F	82_0_F	2519.0
40_0_F	113_0_R	3183.0
37_1_R	133_1_F	1465.0
38_1_F	133_1_F	1193.0
80_1_F	63_1_F	4449.0
104_1_R	40_1_R	3925.0
63_1_F	138_1_F	2670.0
99_1_R	63_1_F	3642.0
138_0_R	40_0_F	3698.0
138_0_R	63_0_R	2670.0
78_0_F	79_0_F	28.0
80_0_R	111_0_F	4414.0
136_0_F	25_0_F	3388.0
136_0_F	121_0_F	71.0
6_0_F	51_0_F	1875.0
82_1_R	40_1_R	2519.0
138_1_F	64_0_F	3330.0
138_1_F	1_0_F	106.0
34_0_F	32_0_F	59.0
;
